(set-logic QF_S)
(declare-fun var0 () String)
(assert (str.in.re var0 (re.++ (re.union (re.union (str.to.re "00") (str.to.re "11")) (re.union (str.to.re "222") (str.to.re "3"))) (re.++ (re.+ (re.+ (str.to.re "4"))) (re.++ (re.+ (re.union (str.to.re "5") (str.to.re "66"))) (re.++ (re.* (re.+ (str.to.re "7"))) (re.++ (re.union (re.+ (str.to.re "888")) (re.+ (str.to.re "99"))) (re.++ (re.* (re.* (str.to.re "a"))) (re.++ (re.+ (re.+ (str.to.re "bb"))) (re.++ (re.+ (re.+ (str.to.re "cc"))) (re.++ (re.+ (re.union (str.to.re "dd") (str.to.re "eee"))) (re.++ (re.union (re.union (str.to.re "ff") (str.to.re "ggg")) (re.union (str.to.re "hhh") (str.to.re "iii"))) (re.++ (re.* (re.union (str.to.re "jjj") (str.to.re "k"))) (re.++ (re.* (re.+ (str.to.re "lll"))) (re.++ (re.union (re.+ (str.to.re "mmm")) (re.+ (str.to.re "n"))) (re.++ (re.union (re.* (str.to.re "o")) (re.* (str.to.re "ppp"))) (re.++ (re.+ (re.+ (str.to.re "q"))) (re.++ (re.union (re.union (str.to.re "rr") (str.to.re "s")) (re.union (str.to.re "tt") (str.to.re "u"))) (re.++ (re.union (re.+ (str.to.re "vvv")) (re.+ (str.to.re "www"))) (re.++ (re.union (re.* (str.to.re "x")) (re.* (str.to.re "y"))) (re.++ (re.* (re.* (str.to.re "zzz"))) (re.++ (re.union (re.union (str.to.re "A") (str.to.re "BB")) (re.union (str.to.re "C") (str.to.re "DD"))) (re.++ (re.* (re.* (str.to.re "EEE"))) (re.++ (re.+ (re.+ (str.to.re "F"))) (re.++ (re.* (re.union (str.to.re "G") (str.to.re "HH"))) (re.++ (re.union (re.+ (str.to.re "I")) (re.+ (str.to.re "JJJ"))) (re.++ (re.* (re.* (str.to.re "K"))) (re.++ (re.* (re.* (str.to.re "L"))) (re.++ (re.+ (re.union (str.to.re "MMM") (str.to.re "NNN"))) (re.++ (re.+ (re.* (str.to.re "OO"))) (re.++ (re.* (re.+ (str.to.re "PPP"))) (re.++ (re.union (re.* (str.to.re "Q")) (re.* (str.to.re "RRR"))) (re.++ (re.union (re.* (str.to.re "S")) (re.* (str.to.re "TTT"))) (re.++ (re.+ (re.* (str.to.re "UUU"))) (re.++ (re.* (re.* (str.to.re "VVV"))) (re.++ (re.union (re.+ (str.to.re "W")) (re.+ (str.to.re "X"))) (re.++ (re.* (re.* (str.to.re "Y"))) (re.++ (re.union (re.union (str.to.re "Z") (str.to.re "!")) (re.union (str.to.re """") (str.to.re "#"))) (re.union (re.+ (str.to.re "$")) (re.+ (str.to.re "%%")))))))))))))))))))))))))))))))))))))))))
(check-sat)